% UNSAT - 21s

% Number of days to cover
D = 5;
% Number of workers
T = 8;
% Number of workers for shift 1
N1 = 3;
% Number of workers for shift 2
N2 = 3;
% Number of workers for shift 3
N3 = 2;
% Max number of days a worker can work in a row
MaxDT = 4;
% Max number of free days a worker can have in a row
MaxDL = 2;
% Minimum number of days a worker must work in the D days
MinDT = 3;
% Minimum number of favored workers a worker must have along in their shift
A = 1;
% Matrix indicating if a worker favors another
afines = [|false,true,false,true,false,true,false,false
          |true,false,true,false,true,false,true,false
          |false,true,false,false,true,true,false,true
          |true,false,false,true,false,true,false,false
          |false,true,true,false,false,false,true,false
          |true,false,true,false,false,true,false,true
          |false,true,false,true,false,false,false,true
          |true,false,true,false,true,false,true,false|];
% List of expert workers, there must be at least one in every shift
R = {1,3,5,7};
